c nIsolatedPIs 0
c maxPI 16
p cnf 69 160
c gate 17 -8 16 0
-8 -17 0
16 -17 0
8 -16 17 0
c gate 18 8 -16 0
8 -18 0
-16 -18 0
-8 16 18 0
c gate 19 7 -15 0
7 -19 0
-15 -19 0
-7 15 19 0
c gate 20 -6 14 0
-6 -20 0
14 -20 0
6 -14 20 0
c gate 21 6 -14 0
6 -21 0
-14 -21 0
-6 14 21 0
c gate 22 5 -13 0
5 -22 0
-13 -22 0
-5 13 22 0
c gate 23 -21 -22 0
-21 -23 0
-22 -23 0
21 22 23 0
c gate 24 -20 -23 0
-20 -24 0
-23 -24 0
20 23 24 0
c gate 25 -19 -24 0
-19 -25 0
-24 -25 0
19 24 25 0
c gate 26 -7 15 0
-7 -26 0
15 -26 0
7 -15 26 0
c gate 27 -25 -26 0
-25 -27 0
-26 -27 0
25 26 27 0
c gate 28 -18 -27 0
-18 -28 0
-27 -28 0
18 27 28 0
c gate 29 -17 -28 0
-17 -29 0
-28 -29 0
17 28 29 0
c gate 30 -1 9 0
-1 -30 0
9 -30 0
1 -9 30 0
c gate 31 29 -30 0
29 -31 0
-30 -31 0
-29 30 31 0
c gate 32 1 -9 0
1 -32 0
-9 -32 0
-1 9 32 0
c gate 33 -29 -32 0
-29 -33 0
-32 -33 0
29 32 33 0
c gate 34 -31 -33 0
-31 -34 0
-33 -34 0
31 33 34 0
c gate 35 2 -10 0
2 -35 0
-10 -35 0
-2 10 35 0
c gate 36 -2 10 0
-2 -36 0
10 -36 0
2 -10 36 0
c gate 37 -35 -36 0
-35 -37 0
-36 -37 0
35 36 37 0
c gate 38 -32 37 0
-32 -38 0
37 -38 0
32 -37 38 0
c gate 39 -30 38 0
-30 -39 0
38 -39 0
30 -38 39 0
c gate 40 4 -12 0
4 -40 0
-12 -40 0
-4 12 40 0
c gate 41 -4 12 0
-4 -41 0
12 -41 0
4 -12 41 0
c gate 42 -40 -41 0
-40 -42 0
-41 -42 0
40 41 42 0
c gate 43 -3 11 0
-3 -43 0
11 -43 0
3 -11 43 0
c gate 44 3 -11 0
3 -44 0
-11 -44 0
-3 11 44 0
c gate 45 -43 -44 0
-43 -45 0
-44 -45 0
43 44 45 0
c gate 46 42 45 0
42 -46 0
45 -46 0
-42 -45 46 0
c gate 47 39 46 0
39 -47 0
46 -47 0
-39 -46 47 0
c gate 48 -5 13 0
-5 -48 0
13 -48 0
5 -13 48 0
c gate 49 -20 -48 0
-20 -49 0
-48 -49 0
20 48 49 0
c gate 50 23 49 0
23 -50 0
49 -50 0
-23 -49 50 0
c gate 51 -17 -18 0
-17 -51 0
-18 -51 0
17 18 51 0
c gate 52 -19 -26 0
-19 -52 0
-26 -52 0
19 26 52 0
c gate 53 51 52 0
51 -53 0
52 -53 0
-51 -52 53 0
c gate 54 50 53 0
50 -54 0
53 -54 0
-50 -53 54 0
c gate 55 47 54 0
47 -55 0
54 -55 0
-47 -54 55 0
c gate 56 -36 -38 0
-36 -56 0
-38 -56 0
36 38 56 0
c gate 57 -44 -56 0
-44 -57 0
-56 -57 0
44 56 57 0
c gate 58 -43 -57 0
-43 -58 0
-57 -58 0
43 57 58 0
c gate 59 -40 -58 0
-40 -59 0
-58 -59 0
40 58 59 0
c gate 60 -41 -59 0
-41 -60 0
-59 -60 0
41 59 60 0
c gate 61 54 60 0
54 -61 0
60 -61 0
-54 -60 61 0
c gate 62 -29 -61 0
-29 -62 0
-61 -62 0
29 61 62 0
c gate 63 -55 -62 0
-55 -63 0
-62 -63 0
55 62 63 0
c gate 64 32 -63 0
32 -64 0
-63 -64 0
-32 63 64 0
c gate 65 30 63 0
30 -65 0
63 -65 0
-30 -63 65 0
c gate 66 -64 -65 0
-64 -66 0
-65 -66 0
64 65 66 0
c gate 67 34 66 0
34 -67 0
66 -67 0
-34 -66 67 0
c gate 68 -34 -66 0
-34 -68 0
-66 -68 0
34 66 68 0
c gate 69 -67 -68 0
-67 -69 0
-68 -69 0
67 68 69 0
c PO
-69 0
